1 3 100 74622.73
1 3 200 78759.81
1 3 300 77257.21
2 3 100 93323.73
2 3 200 100619.29
2 3 300 99529.34
3 3 100 93209.04
3 3 200 100901.00
3 3 300 107362.35
4 3 100 88574.98
4 3 200 96185.45
4 3 300 96339.64
5 3 100 81931.82
5 3 200 82445.67
5 3 300 87326.29
